c Random generated cnf formula, satisfiable: true
p cnf 10 50
3 5 -7 0
-3 6 -8 0
-10 5 -3 0
-10 -2 -3 0
-3 -5 2 0
-5 -4 1 0
1 2 9 0
-5 -8 -7 0
1 2 6 0
-10 -5 -4 0
-6 8 -1 0
6 -3 10 0
6 2 -7 0
-6 -1 -10 0
10 7 5 0
-6 1 10 0
3 -6 8 0
-8 10 3 0
-10 6 3 0
-1 -8 4 0
3 -4 1 0
-7 -4 9 0
10 9 5 0
-9 -10 5 0
2 3 8 0
9 3 -7 0
8 9 -6 0
3 5 -9 0
-1 -10 5 0
1 7 9 0
-5 -3 10 0
-7 3 10 0
-9 -4 -3 0
-2 -4 3 0
-10 8 3 0
6 4 1 0
4 8 10 0
-2 10 8 0
7 5 -10 0
-5 -7 -3 0
-4 6 -1 0
10 -7 6 0
7 -3 -10 0
1 5 -4 0
5 8 9 0
-3 8 1 0
8 -7 6 0
-2 -10 7 0
5 -7 10 0
9 -7 1 0
